(set-option :produce-models true); benchmark generated from python API
(set-info :status unknown)
(declare-fun l_0_0_7 () Real)
(declare-fun l_0_0_1 () Real)
(declare-fun _a_0_ () Real)
(declare-fun l_0_0_10 () Real)
(declare-fun l_0_0_4 () Real)
(declare-fun _a_1_ () Real)
(declare-fun l_0_0_6 () Real)
(declare-fun l_0_0_5 () Real)
(declare-fun l_0_0_12 () Real)
(declare-fun l_0_0_11 () Real)
(declare-fun _a_2_ () Real)
(declare-fun l_0_0_9 () Real)
(declare-fun l_0_0_8 () Real)
(declare-fun l_0_0_3 () Real)
(declare-fun l_0_0_2 () Real)
(declare-fun _a_3_ () Real)
(declare-fun l_0_1_7 () Real)
(declare-fun l_0_1_13 () Real)
(declare-fun l_0_1_1 () Real)
(declare-fun l_0_1_8 () Real)
(declare-fun l_0_1_14 () Real)
(declare-fun l_0_1_2 () Real)
(declare-fun l_0_1_16 () Real)
(declare-fun l_0_1_10 () Real)
(declare-fun l_0_1_4 () Real)
(declare-fun l_0_1_9 () Real)
(declare-fun l_0_1_15 () Real)
(declare-fun l_0_1_3 () Real)
(declare-fun l_0_1_17 () Real)
(declare-fun l_0_1_11 () Real)
(declare-fun l_0_1_5 () Real)
(declare-fun l_0_1_18 () Real)
(declare-fun l_0_1_12 () Real)
(declare-fun l_0_1_6 () Real)
(declare-fun l_0_2_7 () Real)
(declare-fun l_0_2_13 () Real)
(declare-fun l_0_2_1 () Real)
(declare-fun l_0_2_16 () Real)
(declare-fun l_0_2_10 () Real)
(declare-fun l_0_2_4 () Real)
(declare-fun l_0_2_8 () Real)
(declare-fun l_0_2_14 () Real)
(declare-fun l_0_2_2 () Real)
(declare-fun l_0_2_18 () Real)
(declare-fun l_0_2_17 () Real)
(declare-fun l_0_2_12 () Real)
(declare-fun l_0_2_11 () Real)
(declare-fun l_0_2_6 () Real)
(declare-fun l_0_2_5 () Real)
(declare-fun l_0_2_15 () Real)
(declare-fun l_0_2_9 () Real)
(declare-fun l_0_2_3 () Real)
(assert
 (let ((?x61 (* l_0_0_7 l_0_0_7)))
 (let ((?x57 (* l_0_0_1 l_0_0_1)))
 (let ((?x59 (* 19.0 ?x57)))
 (let ((?x60 (+ _a_0_ ?x59)))
 (= (- ?x60 ?x61) 0.0))))))
(assert
 (let ((?x95 (- (+ _a_1_ (* (* 38.0 l_0_0_1) l_0_0_4)) (* (* 4.0 l_0_0_1) l_0_0_1))))
 (= (- ?x95 (* (* 2.0 l_0_0_10) l_0_0_7)) 0.0)))
(assert
 (let ((?x135 (* l_0_0_6 l_0_0_6)))
 (let ((?x136 (* 19.0 ?x135)))
 (let ((?x132 (* l_0_0_5 l_0_0_5)))
 (let ((?x133 (* 19.0 ?x132)))
 (let ((?x129 (* l_0_0_4 l_0_0_4)))
 (let ((?x130 (* 19.0 ?x129)))
 (let ((?x127 (* l_0_0_12 l_0_0_12)))
 (let ((?x125 (* l_0_0_11 l_0_0_11)))
 (let ((?x123 (* l_0_0_10 l_0_0_10)))
 (let ((?x57 (* l_0_0_1 l_0_0_1)))
 (let ((?x126 (- (- (+ (- _a_2_ (* (* 8.0 l_0_0_1) l_0_0_4)) ?x57) ?x123) ?x125)))
 (= (+ (+ (+ (- ?x126 ?x127) ?x130) ?x133) ?x136) 0.0)))))))))))))
(assert
 (let ((?x170 (* l_0_0_9 l_0_0_9)))
 (let ((?x168 (* l_0_0_8 l_0_0_8)))
 (let ((?x165 (* l_0_0_3 l_0_0_3)))
 (let ((?x166 (* 19.0 ?x165)))
 (let ((?x162 (* l_0_0_2 l_0_0_2)))
 (let ((?x163 (* 19.0 ?x162)))
 (let ((?x57 (* l_0_0_1 l_0_0_1)))
 (let ((?x167 (+ (+ (+ (- _a_3_ (* (* 16.0 l_0_0_1) l_0_0_2)) ?x57) ?x163) ?x166)))
 (= (- (- ?x167 ?x168) ?x170) 0.0))))))))))
(assert
 (let ((?x190 (- (* (* 38.0 l_0_0_1) l_0_0_2) (* (* 8.0 l_0_0_1) l_0_0_1))))
 (= (- ?x190 (* (* 2.0 l_0_0_7) l_0_0_8)) 0.0)))
(assert
 (let ((?x214 (- (* (* (- 8.0) l_0_0_1) l_0_0_2) (* (* 16.0 l_0_0_1) l_0_0_4))))
 (let ((?x219 (- (- ?x214 (* (* 2.0 l_0_0_10) l_0_0_8)) (* (* 2.0 l_0_0_11) l_0_0_9))))
 (let ((?x225 (+ (+ ?x219 (* (* 38.0 l_0_0_2) l_0_0_4)) (* (* 38.0 l_0_0_3) l_0_0_5))))
 (= ?x225 0.0)))))
(assert
 (let ((?x246 (* 2.0 l_0_0_1)))
 (let ((?x248 (* ?x246 l_0_0_2)))
 (let ((?x259 (- (- ?x248 (* (* 8.0 l_0_0_2) l_0_0_4)) (* (* 8.0 l_0_0_3) l_0_0_5))))
 (let ((?x265 (- (- ?x259 (* (* 8.0 l_0_0_4) l_0_0_4)) (* (* 8.0 l_0_0_5) l_0_0_5))))
 (= (- ?x265 (* (* 8.0 l_0_0_6) l_0_0_6)) 0.0))))))
(assert
 (let ((?x246 (* 2.0 l_0_0_1)))
 (let ((?x299 (* ?x246 l_0_0_4)))
 (let ((?x305 (- (- ?x299 (* (* 4.0 l_0_0_4) l_0_0_4)) (* (* 4.0 l_0_0_5) l_0_0_5))))
 (= (- ?x305 (* (* 4.0 l_0_0_6) l_0_0_6)) 0.0)))))
(assert
 (let ((?x135 (* l_0_0_6 l_0_0_6)))
 (let ((?x132 (* l_0_0_5 l_0_0_5)))
 (let ((?x129 (* l_0_0_4 l_0_0_4)))
 (let ((?x165 (* l_0_0_3 l_0_0_3)))
 (let ((?x162 (* l_0_0_2 l_0_0_2)))
 (let ((?x327 (+ ?x162 ?x165)))
 (= (+ (+ (+ ?x327 ?x129) ?x132) ?x135) 0.0))))))))
(assert
 (let ((?x338 (+ (* (* 2.0 l_0_0_2) l_0_0_4) (* (* 2.0 l_0_0_3) l_0_0_5))))
 (= ?x338 0.0)))
(assert
 (let ((?x135 (* l_0_0_6 l_0_0_6)))
 (= (+ (+ (* l_0_0_4 l_0_0_4) (* l_0_0_5 l_0_0_5)) ?x135) 0.0)))
(assert
 (let ((?x246 (* 2.0 l_0_0_1)))
 (let ((?x299 (* ?x246 l_0_0_4)))
 (let ((?x354 (- (- ?x299 (* (* 16.0 l_0_0_2) l_0_0_4)) (* (* 4.0 l_0_0_2) l_0_0_2))))
 (let ((?x360 (- (- ?x354 (* (* 16.0 l_0_0_3) l_0_0_5)) (* (* 4.0 l_0_0_3) l_0_0_3))))
 (= ?x360 0.0))))))
(assert
 (let ((?x246 (* 2.0 l_0_0_1)))
 (let ((?x248 (* ?x246 l_0_0_2)))
 (let ((?x386 (- (- ?x248 (* (* 8.0 l_0_0_2) l_0_0_2)) (* (* 8.0 l_0_0_3) l_0_0_3))))
 (= ?x386 0.0)))))
(assert
 (let ((?x165 (* l_0_0_3 l_0_0_3)))
 (let ((?x162 (* l_0_0_2 l_0_0_2)))
 (let ((?x327 (+ ?x162 ?x165)))
 (= ?x327 0.0)))))
(assert
 (let ((?x338 (+ (* (* 2.0 l_0_0_2) l_0_0_4) (* (* 2.0 l_0_0_3) l_0_0_5))))
 (= ?x338 0.0)))
(assert
 (>= l_0_0_1 0.0))
(assert
 (>= l_0_0_3 0.0))
(assert
 (>= l_0_0_6 0.0))
(assert
 (>= l_0_0_7 0.0))
(assert
 (>= l_0_0_9 0.0))
(assert
 (>= l_0_0_12 0.0))
(assert
 (let ((?x414 (- (- (* (* (- _a_0_) l_0_1_1) l_0_1_1) (* l_0_1_13 l_0_1_13)) (* (* 16.0 l_0_1_7) l_0_1_7))))
 (= (+ ?x414 4.0) 0.0)))
(assert
 (let ((?x423 (* l_0_1_7 l_0_1_7)))
 (let ((?x441 (* 8.0 ?x423)))
 (let ((?x436 (- (* (* (* (- 2.0) _a_0_) l_0_1_1) l_0_1_2) (* (* 2.0 l_0_1_13) l_0_1_14))))
 (= (- (+ (- ?x436 (* (* 32.0 l_0_1_7) l_0_1_8)) ?x441) 1.0) 0.0)))))
(assert
 (let ((?x423 (* l_0_1_7 l_0_1_7)))
 (let ((?x475 (* 4.0 ?x423)))
 (let ((?x469 (- (* (* (* (- 2.0) _a_0_) l_0_1_1) l_0_1_4) (* (* _a_1_ l_0_1_1) l_0_1_1))))
 (let ((?x474 (- (- ?x469 (* (* 32.0 l_0_1_10) l_0_1_7)) (* (* 2.0 l_0_1_13) l_0_1_16))))
 (= (+ ?x474 ?x475) 0.0))))))
(assert
 (let ((?x423 (* l_0_1_7 l_0_1_7)))
 (let ((?x508 (* l_0_1_15 l_0_1_15)))
 (let ((?x506 (* l_0_1_14 l_0_1_14)))
 (let ((?x505 (- (* (- _a_0_) (+ (* l_0_1_2 l_0_1_2) (* l_0_1_3 l_0_1_3))) (* (* _a_3_ l_0_1_1) l_0_1_1))))
 (let ((?x512 (- (+ (- (- ?x505 ?x506) ?x508) (* (* 16.0 l_0_1_7) l_0_1_8)) ?x423)))
 (let ((?x518 (- (- ?x512 (* (* 16.0 l_0_1_8) l_0_1_8)) (* (* 16.0 l_0_1_9) l_0_1_9))))
 (= ?x518 0.0))))))))
(assert
 (let ((?x559 (+ (* (* 2.0 l_0_1_2) l_0_1_4) (* (* 2.0 l_0_1_3) l_0_1_5))))
 (let ((?x407 (- _a_0_)))
 (let ((?x567 (+ (- (* ?x407 ?x559) (* (* (* 2.0 _a_1_) l_0_1_1) l_0_1_2)) (* (* 16.0 l_0_1_10) l_0_1_7))))
 (let ((?x572 (- (- ?x567 (* (* 32.0 l_0_1_10) l_0_1_8)) (* (* 32.0 l_0_1_11) l_0_1_9))))
 (let ((?x578 (- (- ?x572 (* (* 2.0 l_0_1_14) l_0_1_16)) (* (* 2.0 l_0_1_15) l_0_1_17))))
 (= (+ ?x578 (* (* 8.0 l_0_1_7) l_0_1_8)) 0.0)))))))
(assert
 (let ((?x423 (* l_0_1_7 l_0_1_7)))
 (let ((?x653 (* l_0_1_18 l_0_1_18)))
 (let ((?x651 (* l_0_1_17 l_0_1_17)))
 (let ((?x649 (* l_0_1_16 l_0_1_16)))
 (let ((?x630 (* l_0_1_6 l_0_1_6)))
 (let ((?x631 (+ (+ (* l_0_1_4 l_0_1_4) (* l_0_1_5 l_0_1_5)) ?x630)))
 (let ((?x407 (- _a_0_)))
 (let ((?x637 (- (- (* ?x407 ?x631) (* (* (* 2.0 _a_1_) l_0_1_1) l_0_1_4)) (* (* _a_2_ l_0_1_1) l_0_1_1))))
 (let ((?x642 (- (+ ?x637 (* (* 8.0 l_0_1_10) l_0_1_7)) (* (* 16.0 l_0_1_10) l_0_1_10))))
 (let ((?x648 (- (- ?x642 (* (* 16.0 l_0_1_11) l_0_1_11)) (* (* 16.0 l_0_1_12) l_0_1_12))))
 (= (- (- (- (- ?x648 ?x649) ?x651) ?x653) ?x423) 0.0))))))))))))
(assert
 (let ((?x715 (* 2.0 l_0_1_10)))
 (let ((?x716 (* ?x715 l_0_1_7)))
 (let ((?x714 (- (* (- _a_1_) (+ (* l_0_1_2 l_0_1_2) (* l_0_1_3 l_0_1_3))) (* (* (* 2.0 _a_3_) l_0_1_1) l_0_1_4))))
 (let ((?x721 (+ (+ (- ?x714 ?x716) (* (* 16.0 l_0_1_10) l_0_1_8)) (* (* 16.0 l_0_1_11) l_0_1_9))))
 (let ((?x725 (+ (+ ?x721 (* 4.0 (* l_0_1_8 l_0_1_8))) (* 4.0 (* l_0_1_9 l_0_1_9)))))
 (= ?x725 0.0)))))))
(assert
 (let ((?x767 (* (* 2.0 l_0_1_7) l_0_1_8)))
 (let ((?x689 (* l_0_1_12 l_0_1_12)))
 (let ((?x764 (* 8.0 ?x689)))
 (let ((?x683 (* l_0_1_11 l_0_1_11)))
 (let ((?x762 (* 8.0 ?x683)))
 (let ((?x677 (* l_0_1_10 l_0_1_10)))
 (let ((?x757 (* 8.0 ?x677)))
 (let ((?x559 (+ (* (* 2.0 l_0_1_2) l_0_1_4) (* (* 2.0 l_0_1_3) l_0_1_5))))
 (let ((?x709 (- _a_1_)))
 (let ((?x756 (+ (- (* ?x709 ?x559) (* (* (* 2.0 _a_2_) l_0_1_1) l_0_1_2)) (* (* 8.0 l_0_1_10) l_0_1_8))))
 (let ((?x765 (+ (+ (+ (+ ?x756 ?x757) (* (* 8.0 l_0_1_11) l_0_1_9)) ?x762) ?x764)))
 (= (- ?x765 ?x767) 0.0)))))))))))))
(assert
 (let ((?x715 (* 2.0 l_0_1_10)))
 (let ((?x716 (* ?x715 l_0_1_7)))
 (let ((?x630 (* l_0_1_6 l_0_1_6)))
 (let ((?x631 (+ (+ (* l_0_1_4 l_0_1_4) (* l_0_1_5 l_0_1_5)) ?x630)))
 (let ((?x709 (- _a_1_)))
 (let ((?x800 (- (- (* ?x709 ?x631) (* (* (* 2.0 _a_2_) l_0_1_1) l_0_1_4)) ?x716)))
 (let ((?x804 (+ (+ ?x800 (* 4.0 (* l_0_1_10 l_0_1_10))) (* 4.0 (* l_0_1_11 l_0_1_11)))))
 (= (+ ?x804 (* 4.0 (* l_0_1_12 l_0_1_12))) 0.0)))))))))
(assert
 (let ((?x546 (* l_0_1_9 l_0_1_9)))
 (let ((?x540 (* l_0_1_8 l_0_1_8)))
 (let ((?x689 (* l_0_1_12 l_0_1_12)))
 (let ((?x683 (* l_0_1_11 l_0_1_11)))
 (let ((?x677 (* l_0_1_10 l_0_1_10)))
 (let ((?x630 (* l_0_1_6 l_0_1_6)))
 (let ((?x631 (+ (+ (* l_0_1_4 l_0_1_4) (* l_0_1_5 l_0_1_5)) ?x630)))
 (let ((?x833 (- (* (- _a_2_) (+ (* l_0_1_2 l_0_1_2) (* l_0_1_3 l_0_1_3))) (* _a_3_ ?x631))))
 (= (- (- (- (- (- ?x833 ?x677) ?x683) ?x689) ?x540) ?x546) 0.0))))))))))
(assert
 (let ((?x882 (* (* 2.0 l_0_1_11) l_0_1_9)))
 (let ((?x715 (* 2.0 l_0_1_10)))
 (let ((?x879 (* ?x715 l_0_1_8)))
 (let ((?x559 (+ (* (* 2.0 l_0_1_2) l_0_1_4) (* (* 2.0 l_0_1_3) l_0_1_5))))
 (let ((?x825 (- _a_2_)))
 (= (- (- (* ?x825 ?x559) ?x879) ?x882) 0.0)))))))
(assert
 (let ((?x689 (* l_0_1_12 l_0_1_12)))
 (let ((?x683 (* l_0_1_11 l_0_1_11)))
 (let ((?x677 (* l_0_1_10 l_0_1_10)))
 (let ((?x630 (* l_0_1_6 l_0_1_6)))
 (let ((?x631 (+ (+ (* l_0_1_4 l_0_1_4) (* l_0_1_5 l_0_1_5)) ?x630)))
 (let ((?x825 (- _a_2_)))
 (= (- (- (- (* ?x825 ?x631) ?x677) ?x683) ?x689) 0.0))))))))
(assert
 (let ((?x767 (* (* 2.0 l_0_1_7) l_0_1_8)))
 (let ((?x927 (+ (- (* (* (* (- 2.0) _a_3_) l_0_1_1) l_0_1_2) ?x767) (* 8.0 (* l_0_1_8 l_0_1_8)))))
 (= (+ ?x927 (* 8.0 (* l_0_1_9 l_0_1_9))) 0.0))))
(assert
 (let ((?x546 (* l_0_1_9 l_0_1_9)))
 (let ((?x540 (* l_0_1_8 l_0_1_8)))
 (let ((?x942 (- (* (- _a_3_) (+ (* l_0_1_2 l_0_1_2) (* l_0_1_3 l_0_1_3))) ?x540)))
 (= (- ?x942 ?x546) 0.0)))))
(assert
 (let ((?x882 (* (* 2.0 l_0_1_11) l_0_1_9)))
 (let ((?x715 (* 2.0 l_0_1_10)))
 (let ((?x879 (* ?x715 l_0_1_8)))
 (let ((?x559 (+ (* (* 2.0 l_0_1_2) l_0_1_4) (* (* 2.0 l_0_1_3) l_0_1_5))))
 (let ((?x935 (- _a_3_)))
 (= (- (- (* ?x935 ?x559) ?x879) ?x882) 0.0)))))))
(assert
 (>= l_0_1_1 0.0))
(assert
 (>= l_0_1_3 0.0))
(assert
 (>= l_0_1_6 0.0))
(assert
 (>= l_0_1_7 0.0))
(assert
 (>= l_0_1_9 0.0))
(assert
 (>= l_0_1_12 0.0))
(assert
 (>= l_0_1_13 0.0))
(assert
 (>= l_0_1_15 0.0))
(assert
 (>= l_0_1_18 0.0))
(assert
 (let ((?x986 (* l_0_2_7 l_0_2_7)))
 (let ((?x987 (* 16.0 ?x986)))
 (let ((?x984 (* l_0_2_13 l_0_2_13)))
 (let ((?x988 (+ (- (+ (* (* (- _a_0_) l_0_2_1) l_0_2_1) _a_0_) ?x984) ?x987)))
 (= ?x988 0.0))))))
(assert
 (let ((?x1002 (- (* (* (* (- 2.0) _a_0_) l_0_2_1) l_0_2_4) (* (* _a_1_ l_0_2_1) l_0_2_1))))
 (let ((?x1009 (- (+ (+ ?x1002 _a_1_) (* (* 32.0 l_0_2_10) l_0_2_7)) (* (* 2.0 l_0_2_13) l_0_2_16))))
 (= (- ?x1009 (* (* 4.0 l_0_2_7) l_0_2_7)) 0.0))))
(assert
 (let ((?x1040 (- (+ (* (* (* (- 2.0) _a_0_) l_0_2_1) l_0_2_2) (* (/ 1.0 10.0) _a_1_)) (* (* 2.0 l_0_2_13) l_0_2_14))))
 (let ((?x1046 (- (+ ?x1040 (* (* 32.0 l_0_2_7) l_0_2_8)) (* (* 8.0 l_0_2_7) l_0_2_7))))
 (= ?x1046 0.0))))
(assert
 (let ((?x986 (* l_0_2_7 l_0_2_7)))
 (let ((?x1100 (* l_0_2_18 l_0_2_18)))
 (let ((?x1098 (* l_0_2_17 l_0_2_17)))
 (let ((?x1096 (* l_0_2_16 l_0_2_16)))
 (let ((?x1093 (* l_0_2_12 l_0_2_12)))
 (let ((?x1094 (* 16.0 ?x1093)))
 (let ((?x1090 (* l_0_2_11 l_0_2_11)))
 (let ((?x1091 (* 16.0 ?x1090)))
 (let ((?x1087 (* l_0_2_10 l_0_2_10)))
 (let ((?x1088 (* 16.0 ?x1087)))
 (let ((?x1082 (* (/ 1.0 100.0) _a_3_)))
 (let ((?x1071 (* l_0_2_6 l_0_2_6)))
 (let ((?x1072 (+ (+ (* l_0_2_4 l_0_2_4) (* l_0_2_5 l_0_2_5)) ?x1071)))
 (let ((?x407 (- _a_0_)))
 (let ((?x1079 (- (- (* ?x407 ?x1072) (* (* (* 2.0 _a_1_) l_0_2_1) l_0_2_4)) (* (* _a_2_ l_0_2_1) l_0_2_1))))
 (let ((?x1089 (+ (- (+ (+ ?x1079 _a_2_) ?x1082) (* (* 8.0 l_0_2_10) l_0_2_7)) ?x1088)))
 (= (+ (- (- (- (+ (+ ?x1089 ?x1091) ?x1094) ?x1096) ?x1098) ?x1100) ?x986) 0.0))))))))))))))))))
(assert
 (let ((?x1151 (* (/ 11.0 50.0) _a_3_)))
 (let ((?x1148 (* (/ 1.0 5.0) _a_2_)))
 (let ((?x1143 (+ (* (* 2.0 l_0_2_2) l_0_2_4) (* (* 2.0 l_0_2_3) l_0_2_5))))
 (let ((?x407 (- _a_0_)))
 (let ((?x1149 (+ (- (* ?x407 ?x1143) (* (* (* 2.0 _a_1_) l_0_2_1) l_0_2_2)) ?x1148)))
 (let ((?x1157 (+ (- (- ?x1149 ?x1151) (* (* 16.0 l_0_2_10) l_0_2_7)) (* (* 32.0 l_0_2_10) l_0_2_8))))
 (let ((?x1163 (- (+ ?x1157 (* (* 32.0 l_0_2_11) l_0_2_9)) (* (* 2.0 l_0_2_14) l_0_2_16))))
 (let ((?x1168 (- (- ?x1163 (* (* 2.0 l_0_2_15) l_0_2_17)) (* (* 8.0 l_0_2_7) l_0_2_8))))
 (= ?x1168 0.0))))))))))
(assert
 (let ((?x1243 (* l_0_2_9 l_0_2_9)))
 (let ((?x1244 (* 16.0 ?x1243)))
 (let ((?x1240 (* l_0_2_8 l_0_2_8)))
 (let ((?x1241 (* 16.0 ?x1240)))
 (let ((?x986 (* l_0_2_7 l_0_2_7)))
 (let ((?x1234 (* l_0_2_15 l_0_2_15)))
 (let ((?x1232 (* l_0_2_14 l_0_2_14)))
 (let ((?x1230 (* (/ 121.0 100.0) _a_3_)))
 (let ((?x1224 (* (/ 1.0 100.0) _a_2_)))
 (let ((?x1225 (+ (* (- _a_0_) (+ (* l_0_2_2 l_0_2_2) (* l_0_2_3 l_0_2_3))) ?x1224)))
 (let ((?x1235 (- (- (+ (- ?x1225 (* (* _a_3_ l_0_2_1) l_0_2_1)) ?x1230) ?x1232) ?x1234)))
 (let ((?x1245 (+ (+ (+ (- ?x1235 (* (* 16.0 l_0_2_7) l_0_2_8)) ?x986) ?x1241) ?x1244)))
 (= ?x1245 0.0))))))))))))))
(assert
 (let ((?x1243 (* l_0_2_9 l_0_2_9)))
 (let ((?x1240 (* l_0_2_8 l_0_2_8)))
 (let ((?x1093 (* l_0_2_12 l_0_2_12)))
 (let ((?x1090 (* l_0_2_11 l_0_2_11)))
 (let ((?x1087 (* l_0_2_10 l_0_2_10)))
 (let ((?x1151 (* (/ 11.0 50.0) _a_3_)))
 (let ((?x1071 (* l_0_2_6 l_0_2_6)))
 (let ((?x1072 (+ (+ (* l_0_2_4 l_0_2_4) (* l_0_2_5 l_0_2_5)) ?x1071)))
 (let ((?x1273 (- (* (- _a_2_) (+ (* l_0_2_2 l_0_2_2) (* l_0_2_3 l_0_2_3))) (* _a_3_ ?x1072))))
 (= (+ (+ (+ (+ (+ (- ?x1273 ?x1151) ?x1087) ?x1090) ?x1093) ?x1240) ?x1243) 0.0)))))))))))
(assert
 (let ((?x1082 (* (/ 1.0 100.0) _a_3_)))
 (= ?x1082 0.0)))
(assert
 (let ((?x1321 (* (* 2.0 l_0_2_11) l_0_2_9)))
 (let ((?x1317 (* 2.0 l_0_2_10)))
 (let ((?x1318 (* ?x1317 l_0_2_8)))
 (let ((?x1315 (* (/ 1.0 50.0) _a_3_)))
 (let ((?x1143 (+ (* (* 2.0 l_0_2_2) l_0_2_4) (* (* 2.0 l_0_2_3) l_0_2_5))))
 (let ((?x825 (- _a_2_)))
 (= (+ (+ (+ (* ?x825 ?x1143) ?x1315) ?x1318) ?x1321) 0.0))))))))
(assert
 (let ((?x1317 (* 2.0 l_0_2_10)))
 (let ((?x1338 (* ?x1317 l_0_2_7)))
 (let ((?x1337 (- (* (- _a_1_) (+ (* l_0_2_2 l_0_2_2) (* l_0_2_3 l_0_2_3))) (* (* (* 2.0 _a_3_) l_0_2_1) l_0_2_4))))
 (let ((?x1344 (- (- (+ ?x1337 ?x1338) (* (* 16.0 l_0_2_10) l_0_2_8)) (* (* 16.0 l_0_2_11) l_0_2_9))))
 (let ((?x1350 (- (- ?x1344 (* (* 4.0 l_0_2_8) l_0_2_8)) (* (* 4.0 l_0_2_9) l_0_2_9))))
 (= ?x1350 0.0)))))))
(assert
 (let ((?x1403 (* (* 2.0 l_0_2_7) l_0_2_8)))
 (let ((?x1143 (+ (* (* 2.0 l_0_2_2) l_0_2_4) (* (* 2.0 l_0_2_3) l_0_2_5))))
 (let ((?x709 (- _a_1_)))
 (let ((?x1391 (- (- (* ?x709 ?x1143) (* (* (* 2.0 _a_2_) l_0_2_1) l_0_2_2)) (* (* 8.0 l_0_2_10) l_0_2_8))))
 (let ((?x1396 (- (- ?x1391 (* (* 8.0 l_0_2_10) l_0_2_10)) (* (* 8.0 l_0_2_11) l_0_2_9))))
 (let ((?x1401 (- (- ?x1396 (* (* 8.0 l_0_2_11) l_0_2_11)) (* (* 8.0 l_0_2_12) l_0_2_12))))
 (= (+ ?x1401 ?x1403) 0.0))))))))
(assert
 (let ((?x1317 (* 2.0 l_0_2_10)))
 (let ((?x1338 (* ?x1317 l_0_2_7)))
 (let ((?x1071 (* l_0_2_6 l_0_2_6)))
 (let ((?x1072 (+ (+ (* l_0_2_4 l_0_2_4) (* l_0_2_5 l_0_2_5)) ?x1071)))
 (let ((?x709 (- _a_1_)))
 (let ((?x1448 (+ (- (* ?x709 ?x1072) (* (* (* 2.0 _a_2_) l_0_2_1) l_0_2_4)) ?x1338)))
 (let ((?x1454 (- (- ?x1448 (* (* 4.0 l_0_2_10) l_0_2_10)) (* (* 4.0 l_0_2_11) l_0_2_11))))
 (= (- ?x1454 (* (* 4.0 l_0_2_12) l_0_2_12)) 0.0)))))))))
(assert
 (let ((?x1093 (* l_0_2_12 l_0_2_12)))
 (let ((?x1090 (* l_0_2_11 l_0_2_11)))
 (let ((?x1087 (* l_0_2_10 l_0_2_10)))
 (let ((?x1071 (* l_0_2_6 l_0_2_6)))
 (let ((?x1072 (+ (+ (* l_0_2_4 l_0_2_4) (* l_0_2_5 l_0_2_5)) ?x1071)))
 (let ((?x825 (- _a_2_)))
 (= (+ (+ (+ (* ?x825 ?x1072) ?x1087) ?x1090) ?x1093) 0.0))))))))
(assert
 (let ((?x1403 (* (* 2.0 l_0_2_7) l_0_2_8)))
 (let ((?x1509 (- (+ (* (* (* (- 2.0) _a_3_) l_0_2_1) l_0_2_2) ?x1403) (* (* 8.0 l_0_2_8) l_0_2_8))))
 (= (- ?x1509 (* (* 8.0 l_0_2_9) l_0_2_9)) 0.0))))
(assert
 (let ((?x1243 (* l_0_2_9 l_0_2_9)))
 (let ((?x1240 (* l_0_2_8 l_0_2_8)))
 (let ((?x1529 (+ (* (- _a_3_) (+ (* l_0_2_2 l_0_2_2) (* l_0_2_3 l_0_2_3))) ?x1240)))
 (= (+ ?x1529 ?x1243) 0.0)))))
(assert
 (let ((?x1321 (* (* 2.0 l_0_2_11) l_0_2_9)))
 (let ((?x1317 (* 2.0 l_0_2_10)))
 (let ((?x1318 (* ?x1317 l_0_2_8)))
 (let ((?x1143 (+ (* (* 2.0 l_0_2_2) l_0_2_4) (* (* 2.0 l_0_2_3) l_0_2_5))))
 (let ((?x935 (- _a_3_)))
 (= (+ (+ (* ?x935 ?x1143) ?x1318) ?x1321) 0.0)))))))
(assert
 (>= l_0_2_1 0.0))
(assert
 (>= l_0_2_3 0.0))
(assert
 (>= l_0_2_6 0.0))
(assert
 (>= l_0_2_7 0.0))
(assert
 (>= l_0_2_9 0.0))
(assert
 (>= l_0_2_12 0.0))
(assert
 (>= l_0_2_13 0.0))
(assert
 (>= l_0_2_15 0.0))
(assert
 (>= l_0_2_18 0.0))
(check-sat)
(get-model)